
Gurobi 7.5.2 (linux64) logging started Sun Apr 22 16:22:09 2018

Academic license - for non-commercial use only
Warning for adding constraints: zero or small (< 1e-13) coefficients, ignored
Optimize a model with 102 rows, 21 columns and 216 nonzeros
Coefficient statistics:
  Matrix range     [1e+00, 2e+01]
  Objective range  [3e+02, 2e+03]
  Bounds range     [0e+00, 0e+00]
  RHS range        [1e+00, 2e+01]
Presolve removed 102 rows and 21 columns
Presolve time: 0.00s
Presolve: All rows and columns removed
Iteration    Objective       Primal Inf.    Dual Inf.      Time
       0    9.4950949e+03   0.000000e+00   2.454642e+03      0s
Extra 7 simplex iterations after uncrush
       7    9.4950949e+03   0.000000e+00   0.000000e+00      0s

Solved in 7 iterations and 0.00 seconds
Optimal objective  9.495094899e+03

Gurobi 7.5.2 (linux64) logging started Sun Apr 22 16:23:04 2018

Academic license - for non-commercial use only
Warning for adding constraints: zero or small (< 1e-13) coefficients, ignored
Optimize a model with 102 rows, 21 columns and 216 nonzeros
Coefficient statistics:
  Matrix range     [1e+00, 2e+01]
  Objective range  [3e+02, 2e+03]
  Bounds range     [0e+00, 0e+00]
  RHS range        [1e+00, 2e+01]
Presolve removed 102 rows and 21 columns
Presolve time: 0.00s
Presolve: All rows and columns removed
Iteration    Objective       Primal Inf.    Dual Inf.      Time
       0    9.4950949e+03   0.000000e+00   2.454642e+03      0s
Extra 7 simplex iterations after uncrush
       7    9.4950949e+03   0.000000e+00   0.000000e+00      0s

Solved in 7 iterations and 0.00 seconds
Optimal objective  9.495094899e+03

Gurobi 7.5.2 (linux64) logging started Sun Apr 22 16:35:10 2018

Academic license - for non-commercial use only
Warning for adding constraints: zero or small (< 1e-13) coefficients, ignored
Optimize a model with 102 rows, 21 columns and 216 nonzeros
Coefficient statistics:
  Matrix range     [1e+00, 2e+01]
  Objective range  [3e+02, 2e+03]
  Bounds range     [0e+00, 0e+00]
  RHS range        [1e+00, 2e+01]
Presolve removed 102 rows and 21 columns
Presolve time: 0.00s
Presolve: All rows and columns removed
Iteration    Objective       Primal Inf.    Dual Inf.      Time
       0    9.4950949e+03   0.000000e+00   2.454642e+03      0s
Extra 7 simplex iterations after uncrush
       7    9.4950949e+03   0.000000e+00   0.000000e+00      0s

Solved in 7 iterations and 0.00 seconds
Optimal objective  9.495094899e+03

Gurobi 7.5.2 (linux64) logging started Sun Apr 22 16:39:15 2018

Academic license - for non-commercial use only
Warning for adding constraints: zero or small (< 1e-13) coefficients, ignored
Optimize a model with 102 rows, 21 columns and 216 nonzeros
Coefficient statistics:
  Matrix range     [1e+00, 2e+01]
  Objective range  [3e+02, 2e+03]
  Bounds range     [0e+00, 0e+00]
  RHS range        [1e+00, 2e+01]
Presolve removed 102 rows and 21 columns
Presolve time: 0.00s
Presolve: All rows and columns removed
Iteration    Objective       Primal Inf.    Dual Inf.      Time
       0    9.4950949e+03   0.000000e+00   2.454642e+03      0s
Extra 7 simplex iterations after uncrush
       7    9.4950949e+03   0.000000e+00   0.000000e+00      0s

Solved in 7 iterations and 0.00 seconds
Optimal objective  9.495094899e+03

Gurobi 7.5.2 (linux64) logging started Sun Apr 22 16:41:44 2018

Academic license - for non-commercial use only
Warning for adding constraints: zero or small (< 1e-13) coefficients, ignored
Optimize a model with 102 rows, 21 columns and 216 nonzeros
Coefficient statistics:
  Matrix range     [1e+00, 2e+01]
  Objective range  [3e+02, 2e+03]
  Bounds range     [0e+00, 0e+00]
  RHS range        [1e+00, 2e+01]
Presolve removed 102 rows and 21 columns
Presolve time: 0.00s
Presolve: All rows and columns removed
Iteration    Objective       Primal Inf.    Dual Inf.      Time
       0    9.4950949e+03   0.000000e+00   2.454642e+03      0s
Extra 7 simplex iterations after uncrush
       7    9.4950949e+03   0.000000e+00   0.000000e+00      0s

Solved in 7 iterations and 0.00 seconds
Optimal objective  9.495094899e+03

Gurobi 7.5.2 (linux64) logging started Sun Apr 22 16:44:23 2018

Academic license - for non-commercial use only
Optimize a model with 86 rows, 21 columns and 216 nonzeros
Coefficient statistics:
  Matrix range     [1e+00, 2e+01]
  Objective range  [3e+02, 2e+03]
  Bounds range     [0e+00, 0e+00]
  RHS range        [1e+00, 2e+01]
Presolve removed 86 rows and 21 columns
Presolve time: 0.00s
Presolve: All rows and columns removed
Iteration    Objective       Primal Inf.    Dual Inf.      Time
       0    9.4950949e+03   0.000000e+00   2.454642e+03      0s
Extra 7 simplex iterations after uncrush
       7    9.4950949e+03   0.000000e+00   0.000000e+00      0s

Solved in 7 iterations and 0.00 seconds
Optimal objective  9.495094899e+03

Gurobi 7.5.2 (linux64) logging started Sun Apr 22 16:48:08 2018

Academic license - for non-commercial use only
Optimize a model with 86 rows, 21 columns and 216 nonzeros
Coefficient statistics:
  Matrix range     [1e+00, 2e+01]
  Objective range  [3e+02, 2e+03]
  Bounds range     [0e+00, 0e+00]
  RHS range        [1e+00, 2e+01]
Presolve removed 86 rows and 21 columns
Presolve time: 0.00s
Presolve: All rows and columns removed
Iteration    Objective       Primal Inf.    Dual Inf.      Time
       0    9.4950949e+03   0.000000e+00   2.454642e+03      0s
Extra 7 simplex iterations after uncrush
       7    9.4950949e+03   0.000000e+00   0.000000e+00      0s

Solved in 7 iterations and 0.00 seconds
Optimal objective  9.495094899e+03

Gurobi 7.5.2 (linux64) logging started Sun Apr 22 16:48:56 2018

Academic license - for non-commercial use only
Optimize a model with 86 rows, 21 columns and 216 nonzeros
Coefficient statistics:
  Matrix range     [1e+00, 2e+01]
  Objective range  [3e+02, 2e+03]
  Bounds range     [0e+00, 0e+00]
  RHS range        [1e+00, 2e+01]
Presolve removed 86 rows and 21 columns
Presolve time: 0.00s
Presolve: All rows and columns removed
Iteration    Objective       Primal Inf.    Dual Inf.      Time
       0    9.4950949e+03   0.000000e+00   2.454642e+03      0s
Extra 7 simplex iterations after uncrush
       7    9.4950949e+03   0.000000e+00   0.000000e+00      0s

Solved in 7 iterations and 0.00 seconds
Optimal objective  9.495094899e+03

Gurobi 7.5.2 (linux64) logging started Sun Apr 22 16:55:23 2018

Academic license - for non-commercial use only
Optimize a model with 86 rows, 21 columns and 216 nonzeros
Coefficient statistics:
  Matrix range     [1e+00, 2e+01]
  Objective range  [3e+02, 2e+03]
  Bounds range     [0e+00, 0e+00]
  RHS range        [1e+00, 2e+01]
Presolve removed 86 rows and 21 columns
Presolve time: 0.00s
Presolve: All rows and columns removed
Iteration    Objective       Primal Inf.    Dual Inf.      Time
       0    9.4950949e+03   0.000000e+00   2.454642e+03      0s
Extra 7 simplex iterations after uncrush
       7    9.4950949e+03   0.000000e+00   0.000000e+00      0s

Solved in 7 iterations and 0.00 seconds
Optimal objective  9.495094899e+03

Gurobi 7.5.2 (linux64) logging started Sun Apr 22 17:04:18 2018

Academic license - for non-commercial use only
Optimize a model with 87 rows, 21 columns and 221 nonzeros
Coefficient statistics:
  Matrix range     [1e+00, 2e+01]
  Objective range  [3e+02, 3e+03]
  Bounds range     [0e+00, 0e+00]
  RHS range        [1e+00, 2e+01]
Presolve removed 83 rows and 17 columns
Presolve time: 0.00s
Presolved: 4 rows, 4 columns, 9 nonzeros

Iteration    Objective       Primal Inf.    Dual Inf.      Time
       0    1.0856073e+04   8.000000e+00   0.000000e+00      0s
Extra 5 simplex iterations after uncrush
       6    1.0143515e+04   0.000000e+00   0.000000e+00      0s

Solved in 6 iterations and 0.00 seconds
Optimal objective  1.014351485e+04

Gurobi 7.5.2 (linux64) logging started Sun Apr 22 17:07:22 2018

Academic license - for non-commercial use only
Optimize a model with 87 rows, 21 columns and 221 nonzeros
Coefficient statistics:
  Matrix range     [1e+00, 2e+01]
  Objective range  [3e+02, 3e+03]
  Bounds range     [0e+00, 0e+00]
  RHS range        [1e+00, 2e+01]
Presolve removed 85 rows and 18 columns
Presolve time: 0.00s
Presolved: 2 rows, 3 columns, 5 nonzeros

Iteration    Objective       Primal Inf.    Dual Inf.      Time
       0    1.0088300e+04   0.000000e+00   0.000000e+00      0s
       0    1.0088300e+04   0.000000e+00   9.163752e+02      0s
Extra 3 simplex iterations after uncrush
       3    1.0088300e+04   0.000000e+00   0.000000e+00      0s

Solved in 3 iterations and 0.00 seconds
Optimal objective  1.008829968e+04

Gurobi 7.5.2 (linux64) logging started Sun Apr 22 17:12:19 2018

Academic license - for non-commercial use only
Warning for adding constraints: zero or small (< 1e-13) coefficients, ignored
Optimize a model with 86 rows, 21 columns and 209 nonzeros
Coefficient statistics:
  Matrix range     [1e+00, 2e+01]
  Objective range  [3e+02, 2e+03]
  Bounds range     [0e+00, 0e+00]
  RHS range        [1e+00, 2e+01]
Presolve removed 86 rows and 21 columns
Presolve time: 0.00s
Presolve: All rows and columns removed
Iteration    Objective       Primal Inf.    Dual Inf.      Time
       0    9.8221620e+03   0.000000e+00   2.109241e+03      0s
Extra 7 simplex iterations after uncrush
       7    9.8221620e+03   0.000000e+00   0.000000e+00      0s

Solved in 7 iterations and 0.00 seconds
Optimal objective  9.822161981e+03

Gurobi 7.5.2 (linux64) logging started Sun Apr 22 17:15:41 2018

Academic license - for non-commercial use only
Warning for adding constraints: zero or small (< 1e-13) coefficients, ignored
Optimize a model with 87 rows, 21 columns and 224 nonzeros
Coefficient statistics:
  Matrix range     [1e+00, 2e+01]
  Objective range  [3e+02, 4e+03]
  Bounds range     [0e+00, 0e+00]
  RHS range        [1e+00, 2e+01]
Presolve removed 87 rows and 21 columns
Presolve time: 0.00s
Presolve: All rows and columns removed
Iteration    Objective       Primal Inf.    Dual Inf.      Time
       0    9.8201889e+03   0.000000e+00   8.857077e+02      0s
Extra 3 simplex iterations after uncrush
       3    9.8201889e+03   0.000000e+00   0.000000e+00      0s

Solved in 3 iterations and 0.00 seconds
Optimal objective  9.820188862e+03

Gurobi 7.5.2 (linux64) logging started Sun Apr 22 17:16:42 2018

Academic license - for non-commercial use only
Warning for adding constraints: zero or small (< 1e-13) coefficients, ignored
Optimize a model with 87 rows, 21 columns and 238 nonzeros
Coefficient statistics:
  Matrix range     [1e+00, 2e+01]
  Objective range  [6e+02, 4e+03]
  Bounds range     [0e+00, 0e+00]
  RHS range        [1e+00, 2e+01]
Presolve removed 71 rows and 12 columns
Presolve time: 0.00s
Presolved: 16 rows, 9 columns, 46 nonzeros

Iteration    Objective       Primal Inf.    Dual Inf.      Time
       0    1.5020975e+04   3.987500e+01   0.000000e+00      0s
Extra 4 simplex iterations after uncrush
       6    9.4986875e+03   0.000000e+00   0.000000e+00      0s

Solved in 6 iterations and 0.00 seconds
Optimal objective  9.498687466e+03

Gurobi 7.5.2 (linux64) logging started Sun Apr 22 17:20:53 2018

Academic license - for non-commercial use only
Optimize a model with 87 rows, 21 columns and 220 nonzeros
Coefficient statistics:
  Matrix range     [1e+00, 2e+01]
  Objective range  [3e+02, 3e+03]
  Bounds range     [0e+00, 0e+00]
  RHS range        [1e+00, 2e+01]
Presolve removed 85 rows and 19 columns
Presolve time: 0.00s
Presolved: 2 rows, 2 columns, 4 nonzeros

Iteration    Objective       Primal Inf.    Dual Inf.      Time
       0    1.0088300e+04   0.000000e+00   0.000000e+00      0s
       0    1.0088300e+04   0.000000e+00   1.078112e+03      0s
Extra 4 simplex iterations after uncrush
       4    1.0088300e+04   0.000000e+00   0.000000e+00      0s

Solved in 4 iterations and 0.00 seconds
Optimal objective  1.008829968e+04

Gurobi 7.5.2 (linux64) logging started Sun Apr 22 17:23:12 2018

Academic license - for non-commercial use only
Optimize a model with 87 rows, 21 columns and 220 nonzeros
Coefficient statistics:
  Matrix range     [1e+00, 2e+01]
  Objective range  [3e+02, 3e+03]
  Bounds range     [0e+00, 0e+00]
  RHS range        [1e+00, 2e+01]
Presolve removed 85 rows and 19 columns
Presolve time: 0.00s
Presolved: 2 rows, 2 columns, 4 nonzeros

Iteration    Objective       Primal Inf.    Dual Inf.      Time
       0    1.0088300e+04   0.000000e+00   0.000000e+00      0s
       0    1.0088300e+04   0.000000e+00   1.078112e+03      0s
Extra 4 simplex iterations after uncrush
       4    1.0088300e+04   0.000000e+00   0.000000e+00      0s

Solved in 4 iterations and 0.00 seconds
Optimal objective  1.008829968e+04

Gurobi 7.5.2 (linux64) logging started Sun Apr 22 17:31:30 2018

Academic license - for non-commercial use only
Optimize a model with 87 rows, 21 columns and 220 nonzeros
Coefficient statistics:
  Matrix range     [1e+00, 2e+01]
  Objective range  [3e+02, 3e+03]
  Bounds range     [0e+00, 0e+00]
  RHS range        [1e+00, 2e+01]
Presolve removed 87 rows and 21 columns
Presolve time: 0.00s
Presolve: All rows and columns removed
Iteration    Objective       Primal Inf.    Dual Inf.      Time
       0    1.0143515e+04   0.000000e+00   1.110219e+03      0s
Extra 5 simplex iterations after uncrush
       5    1.0143515e+04   0.000000e+00   0.000000e+00      0s

Solved in 5 iterations and 0.00 seconds
Optimal objective  1.014351485e+04

Gurobi 7.5.2 (linux64) logging started Sun Apr 22 17:34:43 2018

Academic license - for non-commercial use only
Optimize a model with 87 rows, 21 columns and 221 nonzeros
Coefficient statistics:
  Matrix range     [1e+00, 2e+01]
  Objective range  [3e+02, 3e+03]
  Bounds range     [0e+00, 0e+00]
  RHS range        [1e+00, 2e+01]
Presolve removed 87 rows and 21 columns
Presolve time: 0.00s
Presolve: All rows and columns removed
Iteration    Objective       Primal Inf.    Dual Inf.      Time
       0    8.6445528e+03   0.000000e+00   1.110219e+03      0s
Extra 5 simplex iterations after uncrush
       5    8.6445528e+03   0.000000e+00   0.000000e+00      0s

Solved in 5 iterations and 0.00 seconds
Optimal objective  8.644552769e+03

Gurobi 7.5.2 (linux64) logging started Sun Apr 22 17:53:50 2018

Academic license - for non-commercial use only
Optimize a model with 86 rows, 21 columns and 227 nonzeros
Coefficient statistics:
  Matrix range     [1e+00, 2e+01]
  Objective range  [6e+02, 3e+03]
  Bounds range     [0e+00, 0e+00]
  RHS range        [1e+00, 2e+01]
Presolve removed 85 rows and 19 columns
Presolve time: 0.00s
Presolved: 1 rows, 2 columns, 2 nonzeros

Iteration    Objective       Primal Inf.    Dual Inf.      Time
       0    8.0642221e+03   0.000000e+00   0.000000e+00      0s
       0    8.0642221e+03   0.000000e+00   4.692546e+02      0s
Extra 2 simplex iterations after uncrush
       2    8.0642221e+03   0.000000e+00   0.000000e+00      0s

Solved in 2 iterations and 0.00 seconds
Optimal objective  8.064222136e+03

Gurobi 7.5.2 (linux64) logging started Sun Apr 22 19:13:13 2018

Academic license - for non-commercial use only
Optimize a model with 86 rows, 21 columns and 228 nonzeros
Coefficient statistics:
  Matrix range     [1e+00, 2e+01]
  Objective range  [6e+02, 3e+03]
  Bounds range     [0e+00, 0e+00]
  RHS range        [1e+00, 2e+01]
Presolve removed 86 rows and 21 columns
Presolve time: 0.00s
Presolve: All rows and columns removed
Iteration    Objective       Primal Inf.    Dual Inf.      Time
       0    8.0642221e+03   0.000000e+00   4.692546e+02      0s
Extra 2 simplex iterations after uncrush
       2    8.0642221e+03   0.000000e+00   0.000000e+00      0s

Solved in 2 iterations and 0.00 seconds
Optimal objective  8.064222136e+03

Gurobi 7.5.2 (linux64) logging started Sun Apr 22 19:49:28 2018

Academic license - for non-commercial use only
Warning for adding constraints: zero or small (< 1e-13) coefficients, ignored
Optimize a model with 106 rows, 21 columns and 243 nonzeros
Coefficient statistics:
  Matrix range     [1e+00, 2e+01]
  Objective range  [6e+02, 3e+03]
  Bounds range     [0e+00, 0e+00]
  RHS range        [1e+00, 2e+01]
Presolve removed 0 rows and 65 columns
Presolve time: 0.00s
Presolved: 21 rows, 41 columns, 100 nonzeros

Iteration    Objective       Primal Inf.    Dual Inf.      Time
       0    3.9313617e+04   0.000000e+00   5.980000e+02      0s
      19    8.8852241e+03   0.000000e+00   0.000000e+00      0s

Solved in 19 iterations and 0.00 seconds
Optimal objective  8.885224070e+03

Gurobi 7.5.2 (linux64) logging started Sun Apr 22 19:52:15 2018

Academic license - for non-commercial use only
Warning for adding constraints: zero or small (< 1e-13) coefficients, ignored
Optimize a model with 106 rows, 21 columns and 221 nonzeros
Coefficient statistics:
  Matrix range     [1e+00, 2e+01]
  Objective range  [3e+02, 3e+03]
  Bounds range     [0e+00, 0e+00]
  RHS range        [1e+00, 2e+01]
Presolve removed 0 rows and 75 columns
Presolve time: 0.00s
Presolved: 21 rows, 31 columns, 55 nonzeros

Iteration    Objective       Primal Inf.    Dual Inf.      Time
       0    2.6754193e+04   0.000000e+00   1.460000e+02      0s
      17    8.9598866e+03   0.000000e+00   0.000000e+00      0s

Solved in 17 iterations and 0.00 seconds
Optimal objective  8.959886639e+03

Gurobi 7.5.2 (linux64) logging started Sun Apr 22 20:05:21 2018

Academic license - for non-commercial use only
Warning for adding constraints: zero or small (< 1e-13) coefficients, ignored
Optimize a model with 85 rows, 21 columns and 202 nonzeros
Variable types: 0 continuous, 21 integer (21 binary)
Coefficient statistics:
  Matrix range     [1e+00, 2e+01]
  Objective range  [3e+02, 3e+03]
  Bounds range     [1e+00, 1e+00]
  RHS range        [1e+00, 2e+01]
Found heuristic solution: objective 8959.8866389
Presolve removed 85 rows and 21 columns
Presolve time: 0.02s
Presolve: All rows and columns removed

Explored 0 nodes (0 simplex iterations) in 0.05 seconds
Thread count was 1 (of 8 available processors)

Solution count 1: 8959.89 

Optimal solution found (tolerance 1.00e-04)
Best objective 8.959886638856e+03, best bound 8.959886638856e+03, gap 0.0000%

Gurobi 7.5.2 (linux64) logging started Sun Apr 22 20:13:20 2018

Academic license - for non-commercial use only
Warning for adding constraints: zero or small (< 1e-13) coefficients, ignored
Optimize a model with 85 rows, 21 columns and 213 nonzeros
Variable types: 0 continuous, 21 integer (21 binary)
Coefficient statistics:
  Matrix range     [1e+00, 2e+01]
  Objective range  [6e+02, 3e+03]
  Bounds range     [1e+00, 1e+00]
  RHS range        [1e+00, 2e+01]
Found heuristic solution: objective 8950.7702807
Presolve removed 85 rows and 21 columns
Presolve time: 0.00s
Presolve: All rows and columns removed

Explored 0 nodes (0 simplex iterations) in 0.00 seconds
Thread count was 1 (of 8 available processors)

Solution count 2: 9820.04 8950.77 

Optimal solution found (tolerance 1.00e-04)
Best objective 9.820040331963e+03, best bound 9.820040331963e+03, gap 0.0000%
